array [1..2] of int: X_INTRODUCED_21_ = [1,-1];
array [1..3] of int: X_INTRODUCED_28_ = [3,1,3];
array [1..3] of int: X_INTRODUCED_30_ = [1,3,3];
array [1..3] of int: X_INTRODUCED_32_ = [3,3,1];
array [1..10] of int: X_INTRODUCED_41_ = [1,-1,-1,-1,-1,-1,-1,-1,-1,-1];
var 1..3: X_INTRODUCED_0_;
var 1..3: X_INTRODUCED_1_;
var 1..3: X_INTRODUCED_2_;
var 1..3: X_INTRODUCED_3_;
var 1..3: X_INTRODUCED_4_;
var 1..3: X_INTRODUCED_5_;
var 1..3: X_INTRODUCED_6_;
var 1..3: X_INTRODUCED_7_;
var 1..3: X_INTRODUCED_8_;
var 9..27: total_score:: output_var:: is_defined_var;
var 1..3: X_INTRODUCED_22_ ::var_is_introduced :: is_defined_var;
var 1..3: X_INTRODUCED_24_ ::var_is_introduced :: is_defined_var;
var 1..3: X_INTRODUCED_26_ ::var_is_introduced :: is_defined_var;
var 1..3: X_INTRODUCED_29_ ::var_is_introduced :: is_defined_var;
var 1..3: X_INTRODUCED_31_ ::var_is_introduced :: is_defined_var;
var 1..3: X_INTRODUCED_33_ ::var_is_introduced :: is_defined_var;
var 1..3: X_INTRODUCED_34_ ::var_is_introduced :: is_defined_var;
var 1..3: X_INTRODUCED_35_ ::var_is_introduced :: is_defined_var;
var 1..3: X_INTRODUCED_36_ ::var_is_introduced :: is_defined_var;
var 1..3: X_INTRODUCED_37_ ::var_is_introduced :: is_defined_var;
var 1..3: X_INTRODUCED_38_ ::var_is_introduced :: is_defined_var;
var 1..3: X_INTRODUCED_39_ ::var_is_introduced :: is_defined_var;
array [1..3] of var int: x:: output_array([1..3]) = [X_INTRODUCED_0_,X_INTRODUCED_1_,X_INTRODUCED_2_];
array [1..3] of var int: y:: output_array([1..3]) = [X_INTRODUCED_3_,X_INTRODUCED_4_,X_INTRODUCED_5_];
array [1..3] of var int: z:: output_array([1..3]) = [X_INTRODUCED_6_,X_INTRODUCED_7_,X_INTRODUCED_8_];
array [1..9] of var int: scores:: output_array([1..3,1..3]) = [X_INTRODUCED_29_,X_INTRODUCED_34_,X_INTRODUCED_37_,X_INTRODUCED_31_,X_INTRODUCED_35_,X_INTRODUCED_38_,X_INTRODUCED_33_,X_INTRODUCED_36_,X_INTRODUCED_39_];
constraint int_lin_ne(X_INTRODUCED_21_,[X_INTRODUCED_0_,X_INTRODUCED_1_],0);
constraint int_lin_ne(X_INTRODUCED_21_,[X_INTRODUCED_0_,X_INTRODUCED_2_],0);
constraint int_lin_ne(X_INTRODUCED_21_,[X_INTRODUCED_1_,X_INTRODUCED_2_],0);
constraint int_lin_ne(X_INTRODUCED_21_,[X_INTRODUCED_3_,X_INTRODUCED_4_],0);
constraint int_lin_ne(X_INTRODUCED_21_,[X_INTRODUCED_3_,X_INTRODUCED_5_],0);
constraint int_lin_ne(X_INTRODUCED_21_,[X_INTRODUCED_4_,X_INTRODUCED_5_],0);
constraint int_lin_ne(X_INTRODUCED_21_,[X_INTRODUCED_6_,X_INTRODUCED_7_],0);
constraint int_lin_ne(X_INTRODUCED_21_,[X_INTRODUCED_6_,X_INTRODUCED_8_],0);
constraint int_lin_ne(X_INTRODUCED_21_,[X_INTRODUCED_7_,X_INTRODUCED_8_],0);
constraint array_var_int_element(X_INTRODUCED_0_,y,X_INTRODUCED_22_):: defines_var(X_INTRODUCED_22_);
constraint array_var_int_element(X_INTRODUCED_22_,z,1);
constraint array_var_int_element(X_INTRODUCED_1_,y,X_INTRODUCED_24_):: defines_var(X_INTRODUCED_24_);
constraint array_var_int_element(X_INTRODUCED_24_,z,2);
constraint array_var_int_element(X_INTRODUCED_2_,y,X_INTRODUCED_26_):: defines_var(X_INTRODUCED_26_);
constraint array_var_int_element(X_INTRODUCED_26_,z,3);
constraint array_int_element(X_INTRODUCED_0_,X_INTRODUCED_28_,X_INTRODUCED_29_):: defines_var(X_INTRODUCED_29_);
constraint array_int_element(X_INTRODUCED_3_,X_INTRODUCED_30_,X_INTRODUCED_31_):: defines_var(X_INTRODUCED_31_);
constraint array_int_element(X_INTRODUCED_6_,X_INTRODUCED_32_,X_INTRODUCED_33_):: defines_var(X_INTRODUCED_33_);
constraint array_int_element(X_INTRODUCED_1_,X_INTRODUCED_32_,X_INTRODUCED_34_):: defines_var(X_INTRODUCED_34_);
constraint array_int_element(X_INTRODUCED_4_,X_INTRODUCED_28_,X_INTRODUCED_35_):: defines_var(X_INTRODUCED_35_);
constraint array_int_element(X_INTRODUCED_7_,X_INTRODUCED_30_,X_INTRODUCED_36_):: defines_var(X_INTRODUCED_36_);
constraint array_int_element(X_INTRODUCED_2_,X_INTRODUCED_30_,X_INTRODUCED_37_):: defines_var(X_INTRODUCED_37_);
constraint array_int_element(X_INTRODUCED_5_,X_INTRODUCED_32_,X_INTRODUCED_38_):: defines_var(X_INTRODUCED_38_);
constraint array_int_element(X_INTRODUCED_8_,X_INTRODUCED_28_,X_INTRODUCED_39_):: defines_var(X_INTRODUCED_39_);
constraint int_lin_eq(X_INTRODUCED_41_,[total_score,X_INTRODUCED_29_,X_INTRODUCED_34_,X_INTRODUCED_37_,X_INTRODUCED_31_,X_INTRODUCED_35_,X_INTRODUCED_38_,X_INTRODUCED_33_,X_INTRODUCED_36_,X_INTRODUCED_39_],0):: defines_var(total_score);
solve :: int_search(x,first_fail,indomain_min,complete) minimize total_score;
